NAME : moje8_m2
COMMENT : 6-city problem (Patryk)
TYPE : TSP
DIMENSION : 7
EDGE_WEIGHT_TYPE : EUC_2D
NODE_COORD_SECTION
1 20 20
2 40 25
3 60 15
4 80 20
5 85 40
6 75 60
7 80 80
8 60 75
9 40 85
10 20 80
11 25 60
12 15 40
EOF
